152 144531
1 16 2 46 52 53 72 71 70 91 96 115 116 95 94 93 77 74 73 51 47 78 80 101 102 112 111 104 83 59 64 61 62 63 58 42 5 13 27 28 38 4 14 30 29 31 3 15 32 33 37 44 55 82 87 105 106 107 84 85 108 109 110 117 140 139 141 142 143 138 137 118 120 123 128 127 151 150 152 126 125 124 79 69 54 45 26 25 24 12 6 39 23 22 11 7 21 20 43 57 65 66 67 68 56 81 89 100 113 114 90 99 98 97 133 134 146 145 144 135 136 119 86 60 41 40 18 17 9 8 10 19 88 103 121 132 131 147 148 149 130 129 122 92 75 76 50 49 48 34 36 35 
